Version identifier: 22.1.0.0 | 2022-03-09 | 1a383f8ce
CPXPARAM_Threads                                 1
CPXPARAM_MIP_Strategy_VariableSelect             3
CPXPARAM_TimeLimit                               596.09116335700003
1 of 1 MIP starts provided solutions.
MIP start 'm1' defined initial solution with objective 293.0000.
Tried aggregator 1 time.
MIP Presolve eliminated 14 rows and 0 columns.
MIP Presolve modified 333 coefficients.
Reduced MIP has 1813 rows, 7800 columns, and 137529 nonzeros.
Reduced MIP has 7800 binaries, 0 generals, 0 SOSs, and 0 indicators.
Presolve time = 0.13 sec. (190.03 ticks)
Probing time = 0.03 sec. (26.83 ticks)
Tried aggregator 1 time.
Detecting symmetries...
MIP Presolve modified 9 coefficients.
Reduced MIP has 1813 rows, 7800 columns, and 137835 nonzeros.
Reduced MIP has 7800 binaries, 0 generals, 0 SOSs, and 0 indicators.
Presolve time = 0.13 sec. (177.10 ticks)
Probing time = 0.03 sec. (26.85 ticks)
Clique table members: 603.
MIP emphasis: balance optimality and feasibility.
MIP search method: dynamic search.
Parallel mode: none, using 1 thread.
Root relaxation solution time = 1.41 sec. (1736.89 ticks)

        Nodes                                         Cuts/
   Node  Left     Objective  IInf  Best Integer    Best Bound    ItCnt     Gap

*     0+    0                          293.0000    45150.0000              --- 
      0     0      300.0000  1152      293.0000      300.0000     4733    2.39%
*     0+    0                          300.0000      300.0000             0.00%
      0     0        cutoff            300.0000      300.0000     4733    0.00%
Elapsed time = 10.53 sec. (13265.41 ticks, tree = 0.01 MB, solutions = 2)

Root node processing (before b&c):
  Real time             =   10.53 sec. (13265.71 ticks)
Sequential b&c:
  Real time             =    0.00 sec. (0.00 ticks)
                          ------------
Total (root+branch&cut) =   10.53 sec. (13265.71 ticks)
Primal:	300
Dual:	300
Status:	Optimal
Time:	10.55
Sequence:
	20
	24
	14
	2
	14
	12
	7
	2
	10
	19
	14
	9
	20
	2
	16
	5
	13
	17
	13
	10
	19
	11
	16
	6
	13
	17
	13
	21
	13
	11
	16
	6
	16
	11
	13
	17
	13
	5
	13
	11
	16
	7
	16
	11
	13
	21
	13
	17
	13
	10
	16
	9
	14
	9
	10
	19
	20
	8
	24
	10
	19
	11
	16
	13
	6
	8
	6
	12
	10
	9
	14
	24
	19
	11
	13
	21
	23
	17
	24
	10
	19
	11
	16
	6
	16
	11
	13
	16
	21
	22
	11
	24
	14
	16
	9
	20
	24
	14
	8
	7
	24
	15
	13
	16
	9
	21
	9
	14
	24
	5
	2
	14
	19
	10
	9
	9
	4
	16
	10
	2
	20
	19
	12
	11
	13
	10
	8
	21
	24
	20
	2
	14
	12
	7
	9
	13
	14
	19
	11
	13
	10
	16
	15
	23
	13
	21
	22
	21
	23
	13
	15
	23
	21
	13
	2
	14
	23
	21
	2
	13
	21
	16
	11
	24
	10
	16
	15
	24
	10
	16
	18
	12
	20
	9
	16
	10
	19
	11
	23
	21
	24
	15
	24
	23
	14
	9
	21
	24
	1
	16
	6
	16
	1
	13
	21
	22
	14
	13
	6
	3
	16
	10
	2
	20
	12
	15
	13
	6
	13
	17
	12
	6
	13
	11
	19
	16
	11
	13
	14
	8
	6
	0
	24
	15
	16
	10
	13
	11
	16
	21
	13
	11
	23
	21
	19
	1
	23
	6
	16
	15
	13
	10
	13
	17
	16
	6
	22
	6
	19
	14
	22
	21
	24
	10
	3
	20
	16
	6
	22
	14
	24
	14
	2
	10
	16
	6
	8
	10
	24
	14
	2
	21
	23
	17
	13
	13
	21
	22
	21
	24
	11
	16
	7
	16
	11
	24
	14
	23
	15
	23
	12
	7
	22
	14
	24
	14
	9
	21
	13
	10
